(set-option :print-success true)
(set-logic QF_UF)
(declare-sort U 0)
(declare-fun x0 () U)
(declare-fun y0 () U)
(define-fun x1 () U x0)
(define-fun y1 () U y0)
(assert (not (= x1 y1)))
(check-sat)
(exit)
